(set-logic QF_LIA)
(declare-fun x0 () Int)
(declare-fun x1 () Int)
(declare-fun x2 () Int)
(declare-fun x3 () Int)
(declare-fun x4 () Int)
(declare-fun x5 () Int)
(declare-fun x6 () Int)
(declare-fun x7 () Int)
(declare-fun x8 () Int)
(declare-fun x9 () Int)
(declare-fun A1 () Bool)
(declare-fun A4 () Bool)
(declare-fun A6 () Bool)
(declare-fun A7 () Bool)
(declare-fun A8 () Bool)
(declare-fun A9 () Bool)
(assert (let ((.def_0 (not A1))) (let ((.def_1 (and A6 .def_0))) (let ((.def_2 (* 1 x6))) (let ((.def_3 (< .def_2 (- 1)))) (let ((.def_4 (not .def_3))) (let ((.def_5 (* (- 1) x1))) (let ((.def_6 (* (- 1) x3))) (let ((.def_7 (+ .def_6 .def_5))) (let ((.def_8 (< .def_7 (- 1)))) (let ((.def_9 (or .def_8 .def_4))) (let ((.def_10 (and .def_9 .def_1))) (let ((.def_11 (* 1 x5))) (let ((.def_12 (< .def_11 1))) (let ((.def_13 (and A9 .def_12))) (let ((.def_14 (+ .def_5 .def_2))) (let ((.def_15 (< .def_14 (- 1)))) (let ((.def_16 (* (- 1) x9))) (let ((.def_17 (* 1 x8))) (let ((.def_18 (+ .def_17 .def_16))) (let ((.def_19 (< .def_18 (- 1)))) (let ((.def_20 (not .def_19))) (let ((.def_21 (or .def_20 .def_15))) (let ((.def_22 (and .def_21 .def_13))) (let ((.def_23 (not .def_22))) (let ((.def_24 (and .def_23 .def_10))) (let ((.def_25 (not .def_24))) (let ((.def_26 (* (- 1) x5))) (let ((.def_27 (< .def_26 1))) (let ((.def_28 (not .def_27))) (let ((.def_29 (not A8))) (let ((.def_30 (or .def_29 .def_28))) (let ((.def_31 (not .def_30))) (let ((.def_32 (not A4))) (let ((.def_33 (or .def_28 .def_32))) (let ((.def_34 (not .def_33))) (let ((.def_35 (and .def_34 .def_31))) (let ((.def_36 (* 1 x9))) (let ((.def_37 (* (- 1) x2))) (let ((.def_38 (+ .def_37 .def_36))) (let ((.def_39 (< .def_38 (- 1)))) (let ((.def_40 (+ .def_37 .def_2))) (let ((.def_41 (< .def_40 1))) (let ((.def_42 (and .def_41 .def_39))) (let ((.def_43 (* 1 x3))) (let ((.def_44 (+ .def_11 .def_43))) (let ((.def_45 (< .def_44 1))) (let ((.def_46 (not A7))) (let ((.def_47 (or .def_46 .def_45))) (let ((.def_48 (not .def_47))) (let ((.def_49 (or .def_48 .def_42))) (let ((.def_50 (not .def_49))) (let ((.def_51 (or .def_50 .def_35))) (let ((.def_52 (and .def_51 .def_25))) (let ((.def_53 (not .def_52))) (let ((.def_54 (<= x9 1))) (let ((.def_55 (<= 0 x9))) (let ((.def_56 (<= x8 1))) (let ((.def_57 (<= 0 x8))) (let ((.def_58 (<= x7 1))) (let ((.def_59 (<= 0 x7))) (let ((.def_60 (<= x6 1))) (let ((.def_61 (<= 0 x6))) (let ((.def_62 (<= x5 1))) (let ((.def_63 (<= 0 x5))) (let ((.def_64 (<= x4 1))) (let ((.def_65 (<= 0 x4))) (let ((.def_66 (<= x3 1))) (let ((.def_67 (<= 0 x3))) (let ((.def_68 (<= x2 1))) (let ((.def_69 (<= 0 x2))) (let ((.def_70 (<= x1 1))) (let ((.def_71 (<= 0 x1))) (let ((.def_72 (<= x0 1))) (let ((.def_73 (<= 0 x0))) (let ((.def_74 (and .def_73 .def_72 .def_71 .def_70 .def_69 .def_68 .def_67 .def_66 .def_65 .def_64 .def_63 .def_62 .def_61 .def_60 .def_59 .def_58 .def_57 .def_56 .def_55 .def_54 .def_53))) .def_74))))))))))))))))))))))))))))))))))))))))))))))))))))))))))))))))))))))))))))
(check-sat)
